(declare-const a sl.list.loc)
(declare-const b sl.list.loc)
(declare-const c sl.list.loc)
(declare-const d sl.list.loc)
(assert (sl.sepcon (sl.sepcon (sl.list.pointsto a b)
                              (sl.list.pointsto b c))
                   (sl.sepcon (sl.list.pointsto c d)
                              (sl.list.pointsto d a))))
